n_res = 3;
rcap = [6, 116, 97];
rtype = [1, 2, 2];
n_tasks = 16;
modes = [ {1, 2, 3}, {4, 5, 6}, {7, 8, 9}, {10, 11, 12}, {13, 14, 15}, {16, 17, 18}, {19, 20, 21}, {22, 23, 24}, {25, 26, 27}, {28, 29, 30}, {31, 32, 33}, {34, 35, 36}, {37, 38, 39}, {40, 41, 42}, {43, 44, 45}, {46, 47, 48} ];
succ = [ {6, 7, 10}, {5}, {4, 5, 6}, {8, 11}, {8, 13, 15}, {9, 11}, {9, 12}, {9, 16}, {14}, {14, 15, 16}, {12}, {13, 14, 15}, {16}, {}, {}, {} ];
n_opt = 48;
dur = [8, 8, 9, 5, 9, 10, 2, 3, 6, 2, 4, 4, 1, 5, 6, 2, 5, 5, 5, 5, 5, 3, 8, 9, 1, 2, 5, 3, 7, 10, 7, 7, 9, 1, 2, 4, 3, 4, 4, 8, 10, 10, 1, 3, 6, 3, 8, 9];
rreq = [|  6,  0,  0,  0, 10, 10,  2,  1,  0,  4,  4,  0,  7,  0,  0,  6,  5,  0,  6,  0,  0,  6,  0,  0,  0,  0,  3,  0,  0,  2,  7,  5,  0,  0,  7,  6,  6,  0,  0,  5,  4,  0,  6,  0,  4,  0,  0,  5
        |  7,  0,  7,  0,  6,  0,  0,  6,  1,  0,  0, 10,  0, 10,  0,  0,  0,  7,  7,  0,  9,  8,  7,  0,  0,  0,  1,  0,  4,  0,  4,  7,  0,  8,  7,  0,  9,  0,  5,  9,  0,  4,  7,  4,  0,  8,  7,  0
        |  0,  1,  0,  7,  0,  6,  3,  0,  0,  7,  5,  0,  2,  0,  2,  8,  8,  0,  0,  9,  0,  0,  0,  3,  7,  5,  0, 10,  0,  2,  0,  0,  3,  0,  0,  7,  0,  8,  0,  0,  8,  0,  0,  0,  6,  0,  0,  8 |];
